OBJ 34024740.0
10 21
21 15
15 22
22 3
22 7
3 1
23 24
23 2
24 1
24 11
7 27
27 17
27 40
40 9
30 38
30 18
38 12
38 19
35 36
35 41
14 36
36 37
37 12
41 13
46 47
46 5
9 47
47 6
13 45
45 4
45 20
20 48
48 6
48 49
49 8
49 16
